NAME: berlin52-20-2
TYPE: TSP
COMMENT: min_cost = 4560.39
DIMENSION: 20
EDGE_WEIGHT_TYPE: EUC_2D
NODE_COORD_SECTION
1 845 680
2 525 1000
3 565 575
4 830 610
5 560 365
6 345 750
7 1250 400
8 95 260
9 685 610
10 555 815
11 510 875
12 725 370
13 700 580
14 25 230
15 1220 580
16 1340 725
17 795 645
18 1150 1160
19 875 920
20 420 555
EOF
